-363.0 1.0 0.0 4.0 5.0 3.0 1.0 9.0 2.0 6.0 7.0 1.0 7.0 3.0 3.0 0.0 3.0 4.0 0.0 8.0 1.0 1.0 8.0 5.0 4.0 0.0 2.0 10.0 3.0 4.0 6.0 2.0 2.0 10.0 3.0 6.0 4.0 5.0 9.0 2.0 5.0 7.0 5.0 0.0 10.0 4.0 2.0 5.0 10.0 7.0 6.0 0.0 1.0 6.0 4.0 3.0 9.0 6.0 6.0 10.0 2.0 9.0 1.0 6.0 2.0 2.0 0.0 5.0 10.0 5.0 8.0 10.0 2.0 1.0 1.0 6.0 10.0 6.0 8.0 1.0 1.0 7.0 0.0 
1.0 -444.0 3.0 3.0 6.0 4.0 9.0 5.0 8.0 6.0 3.0 2.0 10.0 1.0 2.0 4.0 8.0 1.0 8.0 4.0 3.0 6.0 3.0 5.0 3.0 2.0 3.0 6.0 4.0 10.0 2.0 5.0 6.0 4.0 7.0 6.0 10.0 3.0 2.0 5.0 9.0 10.0 9.0 5.0 8.0 4.0 9.0 9.0 9.0 9.0 4.0 6.0 4.0 8.0 4.0 5.0 9.0 3.0 10.0 3.0 3.0 2.0 7.0 7.0 5.0 5.0 10.0 10.0 8.0 5.0 5.0 5.0 5.0 8.0 7.0 5.0 5.0 4.0 9.0 9.0 0.0 0.0 0.0 
0.0 3.0 -403.0 10.0 3.0 3.0 5.0 8.0 6.0 2.0 9.0 9.0 3.0 9.0 6.0 8.0 1.0 5.0 6.0 10.0 6.0 0.0 5.0 9.0 6.0 1.0 10.0 5.0 2.0 2.0 7.0 5.0 6.0 10.0 5.0 0.0 3.0 7.0 5.0 7.0 10.0 1.0 1.0 4.0 6.0 5.0 0.0 2.0 1.0 5.0 8.0 7.0 8.0 2.0 10.0 9.0 3.0 2.0 2.0 6.0 2.0 8.0 2.0 7.0 2.0 10.0 6.0 0.0 1.0 7.0 3.0 4.0 0.0 6.0 10.0 5.0 7.0 5.0 4.0 2.0 0.0 5.0 8.0 
4.0 3.0 10.0 -405.0 6.0 5.0 5.0 1.0 10.0 0.0 1.0 8.0 4.0 2.0 2.0 2.0 3.0 9.0 6.0 8.0 6.0 8.0 0.0 9.0 9.0 10.0 5.0 9.0 0.0 1.0 6.0 10.0 2.0 1.0 1.0 2.0 0.0 6.0 0.0 0.0 3.0 7.0 9.0 4.0 10.0 10.0 5.0 7.0 9.0 9.0 1.0 2.0 2.0 5.0 3.0 10.0 3.0 1.0 3.0 5.0 1.0 10.0 7.0 6.0 10.0 10.0 1.0 4.0 10.0 2.0 9.0 6.0 5.0 10.0 0.0 8.0 1.0 2.0 1.0 6.0 3.0 4.0 7.0 
5.0 6.0 3.0 6.0 -417.0 9.0 2.0 10.0 1.0 8.0 8.0 1.0 1.0 10.0 7.0 6.0 9.0 0.0 9.0 5.0 7.0 2.0 1.0 6.0 5.0 0.0 7.0 10.0 6.0 7.0 9.0 7.0 4.0 5.0 0.0 1.0 0.0 6.0 7.0 3.0 1.0 0.0 6.0 7.0 7.0 0.0 0.0 5.0 6.0 5.0 9.0 6.0 5.0 8.0 8.0 1.0 2.0 5.0 9.0 5.0 4.0 0.0 9.0 10.0 4.0 8.0 6.0 1.0 7.0 5.0 10.0 6.0 3.0 10.0 3.0 1.0 10.0 4.0 6.0 8.0 1.0 0.0 7.0 
3.0 4.0 3.0 5.0 9.0 -445.0 6.0 3.0 0.0 4.0 7.0 5.0 7.0 5.0 10.0 6.0 0.0 1.0 9.0 8.0 6.0 4.0 8.0 9.0 5.0 0.0 4.0 3.0 2.0 3.0 8.0 10.0 0.0 5.0 5.0 1.0 10.0 2.0 5.0 0.0 1.0 5.0 5.0 10.0 2.0 1.0 10.0 1.0 6.0 7.0 3.0 7.0 4.0 4.0 7.0 8.0 8.0 1.0 10.0 6.0 6.0 8.0 2.0 10.0 8.0 8.0 3.0 5.0 7.0 7.0 5.0 6.0 8.0 6.0 3.0 10.0 5.0 6.0 10.0 4.0 9.0 8.0 10.0 
1.0 9.0 5.0 5.0 2.0 6.0 -390.0 4.0 9.0 5.0 5.0 6.0 0.0 3.0 7.0 6.0 8.0 1.0 9.0 6.0 0.0 8.0 0.0 9.0 0.0 1.0 3.0 4.0 1.0 9.0 8.0 6.0 6.0 0.0 7.0 10.0 4.0 6.0 7.0 1.0 3.0 0.0 4.0 0.0 10.0 1.0 8.0 10.0 2.0 4.0 6.0 10.0 2.0 0.0 4.0 10.0 6.0 4.0 6.0 9.0 9.0 2.0 3.0 1.0 8.0 2.0 8.0 6.0 1.0 0.0 6.0 8.0 6.0 6.0 5.0 3.0 3.0 9.0 1.0 9.0 0.0 1.0 7.0 
9.0 5.0 8.0 1.0 10.0 3.0 4.0 -376.0 5.0 5.0 9.0 6.0 4.0 8.0 6.0 10.0 1.0 5.0 9.0 8.0 1.0 4.0 3.0 4.0 1.0 10.0 3.0 2.0 8.0 4.0 1.0 7.0 10.0 0.0 6.0 6.0 9.0 3.0 2.0 0.0 0.0 4.0 6.0 4.0 1.0 5.0 6.0 8.0 4.0 8.0 2.0 1.0 0.0 10.0 4.0 4.0 4.0 9.0 0.0 0.0 4.0 4.0 6.0 2.0 1.0 3.0 5.0 10.0 8.0 9.0 0.0 5.0 7.0 0.0 9.0 0.0 0.0 1.0 5.0 3.0 10.0 3.0 1.0 
2.0 8.0 6.0 10.0 1.0 0.0 9.0 5.0 -429.0 3.0 1.0 10.0 10.0 0.0 2.0 4.0 3.0 10.0 2.0 8.0 10.0 4.0 9.0 2.0 7.0 9.0 9.0 9.0 8.0 0.0 3.0 2.0 8.0 3.0 8.0 1.0 9.0 0.0 9.0 1.0 3.0 10.0 2.0 1.0 10.0 6.0 6.0 7.0 9.0 1.0 8.0 1.0 10.0 1.0 1.0 8.0 5.0 1.0 0.0 8.0 10.0 4.0 3.0 0.0 5.0 7.0 0.0 4.0 4.0 10.0 1.0 3.0 5.0 10.0 9.0 9.0 6.0 9.0 7.0 5.0 9.0 0.0 6.0 
6.0 6.0 2.0 0.0 8.0 4.0 5.0 5.0 3.0 -405.0 7.0 3.0 1.0 0.0 5.0 8.0 6.0 8.0 8.0 1.0 10.0 4.0 4.0 5.0 7.0 6.0 9.0 1.0 7.0 1.0 6.0 8.0 3.0 5.0 7.0 0.0 5.0 0.0 10.0 1.0 3.0 5.0 10.0 6.0 1.0 8.0 10.0 3.0 6.0 1.0 6.0 1.0 9.0 6.0 4.0 9.0 8.0 7.0 7.0 8.0 5.0 3.0 0.0 7.0 3.0 8.0 2.0 1.0 4.0 9.0 3.0 1.0 9.0 5.0 7.0 9.0 0.0 0.0 7.0 4.0 5.0 6.0 4.0 
7.0 3.0 9.0 1.0 8.0 7.0 5.0 9.0 1.0 7.0 -397.0 2.0 5.0 5.0 5.0 8.0 7.0 10.0 5.0 4.0 5.0 8.0 1.0 10.0 8.0 4.0 8.0 9.0 6.0 8.0 1.0 1.0 4.0 0.0 0.0 1.0 1.0 2.0 7.0 7.0 6.0 4.0 6.0 3.0 1.0 8.0 3.0 9.0 2.0 2.0 1.0 10.0 1.0 2.0 1.0 4.0 1.0 9.0 1.0 1.0 9.0 3.0 6.0 9.0 7.0 4.0 6.0 9.0 7.0 9.0 6.0 0.0 4.0 4.0 9.0 8.0 9.0 4.0 5.0 3.0 1.0 1.0 0.0 
1.0 2.0 9.0 8.0 1.0 5.0 6.0 6.0 10.0 3.0 2.0 -392.0 0.0 0.0 8.0 6.0 5.0 7.0 10.0 10.0 7.0 4.0 2.0 2.0 3.0 1.0 6.0 3.0 10.0 4.0 10.0 9.0 4.0 5.0 0.0 2.0 10.0 2.0 3.0 3.0 7.0 10.0 0.0 6.0 2.0 4.0 1.0 1.0 4.0 2.0 6.0 3.0 6.0 5.0 3.0 7.0 1.0 0.0 5.0 9.0 2.0 8.0 7.0 4.0 1.0 2.0 3.0 5.0 7.0 5.0 8.0 8.0 8.0 3.0 8.0 2.0 5.0 2.0 9.0 8.0 3.0 10.0 3.0 
7.0 10.0 3.0 4.0 1.0 7.0 0.0 4.0 10.0 1.0 5.0 0.0 -371.0 9.0 1.0 8.0 6.0 6.0 3.0 2.0 3.0 3.0 9.0 6.0 0.0 10.0 6.0 4.0 8.0 7.0 2.0 5.0 5.0 0.0 4.0 6.0 1.0 9.0 1.0 2.0 7.0 4.0 6.0 2.0 8.0 3.0 0.0 4.0 1.0 2.0 10.0 0.0 6.0 6.0 1.0 1.0 2.0 0.0 6.0 4.0 3.0 3.0 2.0 3.0 3.0 5.0 8.0 4.0 7.0 10.0 5.0 6.0 6.0 4.0 5.0 1.0 0.0 10.0 10.0 6.0 10.0 3.0 6.0 
3.0 1.0 9.0 2.0 10.0 5.0 3.0 8.0 0.0 0.0 5.0 0.0 9.0 -413.0 9.0 3.0 6.0 7.0 3.0 5.0 10.0 7.0 1.0 6.0 1.0 4.0 0.0 1.0 3.0 1.0 2.0 8.0 9.0 7.0 4.0 7.0 8.0 10.0 4.0 0.0 7.0 7.0 10.0 5.0 7.0 1.0 6.0 2.0 8.0 4.0 9.0 4.0 6.0 3.0 9.0 9.0 10.0 4.0 3.0 7.0 4.0 6.0 1.0 10.0 9.0 1.0 0.0 6.0 6.0 1.0 10.0 5.0 8.0 3.0 9.0 5.0 4.0 0.0 0.0 9.0 4.0 8.0 2.0 
3.0 2.0 6.0 2.0 7.0 10.0 7.0 6.0 2.0 5.0 5.0 8.0 1.0 9.0 -403.0 3.0 6.0 3.0 5.0 6.0 9.0 6.0 6.0 4.0 4.0 8.0 2.0 8.0 4.0 7.0 7.0 1.0 1.0 6.0 8.0 6.0 7.0 4.0 4.0 8.0 5.0 1.0 10.0 6.0 8.0 9.0 5.0 8.0 8.0 8.0 6.0 3.0 1.0 9.0 7.0 6.0 9.0 9.0 8.0 4.0 8.0 0.0 0.0 3.0 1.0 3.0 7.0 3.0 4.0 7.0 2.0 4.0 8.0 7.0 4.0 0.0 1.0 1.0 2.0 0.0 0.0 1.0 1.0 
0.0 4.0 8.0 2.0 6.0 6.0 6.0 10.0 4.0 8.0 8.0 6.0 8.0 3.0 3.0 -399.0 3.0 10.0 5.0 5.0 4.0 10.0 3.0 8.0 4.0 6.0 3.0 2.0 2.0 9.0 8.0 3.0 4.0 8.0 8.0 9.0 2.0 4.0 4.0 3.0 8.0 6.0 4.0 5.0 1.0 0.0 3.0 3.0 3.0 3.0 8.0 4.0 2.0 0.0 5.0 7.0 1.0 1.0 2.0 6.0 4.0 2.0 7.0 1.0 10.0 7.0 7.0 10.0 2.0 4.0 1.0 9.0 2.0 7.0 7.0 2.0 9.0 6.0 1.0 5.0 4.0 8.0 3.0 
3.0 8.0 1.0 3.0 9.0 0.0 8.0 1.0 3.0 6.0 7.0 5.0 6.0 6.0 6.0 3.0 -371.0 2.0 9.0 4.0 5.0 3.0 1.0 6.0 4.0 2.0 5.0 3.0 4.0 1.0 4.0 2.0 4.0 2.0 0.0 1.0 4.0 4.0 3.0 10.0 2.0 0.0 4.0 9.0 5.0 4.0 7.0 9.0 5.0 0.0 3.0 9.0 6.0 7.0 8.0 4.0 4.0 9.0 0.0 7.0 9.0 2.0 3.0 6.0 3.0 10.0 0.0 5.0 8.0 3.0 5.0 1.0 5.0 7.0 3.0 2.0 1.0 9.0 1.0 9.0 7.0 2.0 10.0 
4.0 1.0 5.0 9.0 0.0 1.0 1.0 5.0 10.0 8.0 10.0 7.0 6.0 7.0 3.0 10.0 2.0 -378.0 5.0 6.0 6.0 0.0 9.0 4.0 1.0 2.0 3.0 10.0 7.0 5.0 3.0 7.0 7.0 7.0 2.0 10.0 1.0 2.0 9.0 2.0 7.0 1.0 3.0 3.0 7.0 6.0 7.0 5.0 8.0 7.0 4.0 6.0 2.0 9.0 2.0 0.0 1.0 6.0 0.0 0.0 0.0 3.0 3.0 6.0 5.0 2.0 3.0 10.0 2.0 7.0 10.0 3.0 6.0 3.0 1.0 8.0 8.0 1.0 1.0 5.0 1.0 0.0 9.0 
0.0 8.0 6.0 6.0 9.0 9.0 9.0 9.0 2.0 8.0 5.0 10.0 3.0 3.0 5.0 5.0 9.0 5.0 -421.0 8.0 8.0 3.0 5.0 2.0 7.0 4.0 1.0 5.0 8.0 8.0 2.0 4.0 1.0 7.0 0.0 6.0 6.0 5.0 0.0 9.0 5.0 5.0 7.0 5.0 6.0 1.0 1.0 7.0 0.0 4.0 9.0 1.0 5.0 0.0 7.0 7.0 7.0 10.0 10.0 10.0 8.0 0.0 10.0 5.0 1.0 5.0 0.0 10.0 5.0 2.0 8.0 6.0 2.0 4.0 1.0 2.0 9.0 9.0 5.0 1.0 2.0 7.0 2.0 
8.0 4.0 10.0 8.0 5.0 8.0 6.0 8.0 8.0 1.0 4.0 10.0 2.0 5.0 6.0 5.0 4.0 6.0 8.0 -399.0 1.0 3.0 5.0 2.0 8.0 9.0 4.0 2.0 1.0 4.0 8.0 8.0 6.0 5.0 2.0 3.0 9.0 6.0 10.0 6.0 7.0 0.0 3.0 1.0 2.0 4.0 1.0 0.0 5.0 0.0 2.0 9.0 10.0 10.0 5.0 1.0 10.0 9.0 3.0 5.0 3.0 4.0 0.0 8.0 7.0 10.0 5.0 6.0 0.0 3.0 7.0 2.0 3.0 3.0 8.0 7.0 6.0 0.0 8.0 1.0 1.0 0.0 2.0 
1.0 3.0 6.0 6.0 7.0 6.0 0.0 1.0 10.0 10.0 5.0 7.0 3.0 10.0 9.0 4.0 5.0 6.0 8.0 1.0 -383.0 9.0 3.0 2.0 0.0 7.0 3.0 4.0 8.0 8.0 0.0 4.0 8.0 4.0 9.0 10.0 0.0 4.0 5.0 6.0 0.0 10.0 3.0 6.0 7.0 7.0 9.0 2.0 7.0 2.0 1.0 0.0 6.0 4.0 1.0 0.0 6.0 4.0 8.0 7.0 0.0 4.0 2.0 5.0 2.0 3.0 4.0 1.0 8.0 1.0 3.0 4.0 8.0 2.0 6.0 8.0 7.0 4.0 10.0 0.0 3.0 3.0 3.0 
1.0 6.0 0.0 8.0 2.0 4.0 8.0 4.0 4.0 4.0 8.0 4.0 3.0 7.0 6.0 10.0 3.0 0.0 3.0 3.0 9.0 -426.0 0.0 0.0 9.0 8.0 6.0 1.0 1.0 3.0 4.0 8.0 10.0 4.0 3.0 3.0 5.0 5.0 10.0 2.0 8.0 10.0 2.0 5.0 4.0 6.0 5.0 3.0 1.0 3.0 10.0 10.0 4.0 5.0 3.0 3.0 1.0 5.0 5.0 7.0 8.0 7.0 5.0 2.0 9.0 9.0 5.0 5.0 10.0 4.0 10.0 7.0 6.0 4.0 5.0 7.0 9.0 6.0 2.0 7.0 7.0 8.0 5.0 
8.0 3.0 5.0 0.0 1.0 8.0 0.0 3.0 9.0 4.0 1.0 2.0 9.0 1.0 6.0 3.0 1.0 9.0 5.0 5.0 3.0 0.0 -392.0 6.0 1.0 2.0 8.0 6.0 8.0 10.0 0.0 7.0 7.0 1.0 3.0 7.0 10.0 3.0 10.0 1.0 3.0 5.0 10.0 3.0 6.0 8.0 9.0 4.0 5.0 6.0 3.0 8.0 7.0 1.0 6.0 7.0 3.0 7.0 1.0 9.0 0.0 6.0 8.0 1.0 0.0 6.0 0.0 0.0 9.0 8.0 10.0 1.0 8.0 1.0 8.0 7.0 4.0 1.0 10.0 9.0 0.0 3.0 5.0 
5.0 5.0 9.0 9.0 6.0 9.0 9.0 4.0 2.0 5.0 10.0 2.0 6.0 6.0 4.0 8.0 6.0 4.0 2.0 2.0 2.0 0.0 6.0 -368.0 1.0 6.0 0.0 3.0 1.0 2.0 1.0 10.0 6.0 3.0 2.0 1.0 5.0 8.0 7.0 5.0 1.0 4.0 5.0 3.0 4.0 2.0 8.0 3.0 0.0 8.0 2.0 0.0 8.0 7.0 0.0 1.0 8.0 3.0 7.0 0.0 0.0 8.0 7.0 0.0 8.0 6.0 1.0 3.0 7.0 10.0 4.0 2.0 6.0 3.0 10.0 8.0 1.0 5.0 1.0 10.0 4.0 3.0 5.0 
4.0 3.0 6.0 9.0 5.0 5.0 0.0 1.0 7.0 7.0 8.0 3.0 0.0 1.0 4.0 4.0 4.0 1.0 7.0 8.0 0.0 9.0 1.0 1.0 -402.0 6.0 9.0 3.0 0.0 0.0 8.0 8.0 5.0 4.0 4.0 0.0 6.0 8.0 8.0 8.0 2.0 3.0 10.0 4.0 7.0 6.0 4.0 7.0 2.0 3.0 4.0 7.0 5.0 9.0 4.0 2.0 6.0 5.0 7.0 4.0 2.0 10.0 0.0 6.0 4.0 10.0 7.0 5.0 10.0 5.0 0.0 6.0 9.0 8.0 2.0 7.0 4.0 9.0 3.0 3.0 0.0 9.0 7.0 
0.0 2.0 1.0 10.0 0.0 0.0 1.0 10.0 9.0 6.0 4.0 1.0 10.0 4.0 8.0 6.0 2.0 2.0 4.0 9.0 7.0 8.0 2.0 6.0 6.0 -392.0 2.0 9.0 0.0 0.0 4.0 8.0 1.0 2.0 9.0 0.0 10.0 7.0 8.0 8.0 4.0 9.0 3.0 9.0 10.0 10.0 1.0 6.0 0.0 1.0 8.0 1.0 1.0 1.0 8.0 3.0 1.0 0.0 10.0 1.0 9.0 5.0 8.0 0.0 10.0 8.0 5.0 6.0 7.0 8.0 0.0 5.0 3.0 7.0 1.0 10.0 8.0 1.0 3.0 3.0 3.0 6.0 3.0 
2.0 3.0 10.0 5.0 7.0 4.0 3.0 3.0 9.0 9.0 8.0 6.0 6.0 0.0 2.0 3.0 5.0 3.0 1.0 4.0 3.0 6.0 8.0 0.0 9.0 2.0 -393.0 4.0 6.0 7.0 7.0 2.0 4.0 3.0 3.0 7.0 8.0 1.0 1.0 4.0 0.0 3.0 8.0 4.0 5.0 10.0 9.0 9.0 9.0 5.0 8.0 5.0 0.0 5.0 1.0 0.0 3.0 8.0 0.0 2.0 0.0 9.0 10.0 8.0 5.0 2.0 4.0 7.0 1.0 8.0 8.0 6.0 4.0 7.0 7.0 5.0 5.0 0.0 9.0 5.0 3.0 3.0 5.0 
10.0 6.0 5.0 9.0 10.0 3.0 4.0 2.0 9.0 1.0 9.0 3.0 4.0 1.0 8.0 2.0 3.0 10.0 5.0 2.0 4.0 1.0 6.0 3.0 3.0 9.0 4.0 -387.0 0.0 0.0 0.0 2.0 10.0 5.0 8.0 9.0 2.0 1.0 6.0 7.0 3.0 3.0 7.0 7.0 4.0 10.0 7.0 2.0 7.0 3.0 4.0 8.0 8.0 4.0 4.0 0.0 2.0 3.0 4.0 4.0 7.0 0.0 2.0 0.0 8.0 6.0 9.0 5.0 7.0 9.0 2.0 5.0 0.0 8.0 2.0 3.0 7.0 2.0 4.0 10.0 1.0 7.0 3.0 
3.0 4.0 2.0 0.0 6.0 2.0 1.0 8.0 8.0 7.0 6.0 10.0 8.0 3.0 4.0 2.0 4.0 7.0 8.0 1.0 8.0 1.0 8.0 1.0 0.0 0.0 6.0 0.0 -401.0 0.0 4.0 4.0 1.0 6.0 4.0 10.0 10.0 5.0 3.0 10.0 1.0 6.0 8.0 9.0 2.0 1.0 1.0 9.0 5.0 4.0 10.0 4.0 10.0 4.0 6.0 7.0 8.0 5.0 2.0 9.0 4.0 9.0 1.0 2.0 0.0 5.0 10.0 5.0 0.0 8.0 8.0 7.0 4.0 10.0 8.0 2.0 6.0 5.0 0.0 5.0 5.0 6.0 5.0 
4.0 10.0 2.0 1.0 7.0 3.0 9.0 4.0 0.0 1.0 8.0 4.0 7.0 1.0 7.0 9.0 1.0 5.0 8.0 4.0 8.0 3.0 10.0 2.0 0.0 0.0 7.0 0.0 0.0 -386.0 8.0 1.0 4.0 5.0 9.0 3.0 6.0 8.0 3.0 7.0 1.0 1.0 7.0 7.0 4.0 3.0 7.0 3.0 0.0 7.0 9.0 3.0 1.0 1.0 4.0 10.0 6.0 1.0 9.0 1.0 2.0 8.0 1.0 10.0 2.0 6.0 0.0 6.0 9.0 4.0 5.0 0.0 9.0 7.0 8.0 2.0 2.0 1.0 8.0 10.0 7.0 9.0 6.0 
6.0 2.0 7.0 6.0 9.0 8.0 8.0 1.0 3.0 6.0 1.0 10.0 2.0 2.0 7.0 8.0 4.0 3.0 2.0 8.0 0.0 4.0 0.0 1.0 8.0 4.0 7.0 0.0 4.0 8.0 -406.0 3.0 1.0 4.0 4.0 7.0 3.0 9.0 3.0 7.0 5.0 4.0 3.0 8.0 3.0 10.0 7.0 8.0 3.0 6.0 5.0 0.0 5.0 1.0 0.0 10.0 9.0 0.0 1.0 4.0 6.0 10.0 0.0 9.0 5.0 1.0 4.0 8.0 4.0 0.0 8.0 7.0 5.0 6.0 5.0 7.0 7.0 1.0 3.0 10.0 9.0 10.0 9.0 
2.0 5.0 5.0 10.0 7.0 10.0 6.0 7.0 2.0 8.0 1.0 9.0 5.0 8.0 1.0 3.0 2.0 7.0 4.0 8.0 4.0 8.0 7.0 10.0 8.0 8.0 2.0 2.0 4.0 1.0 3.0 -407.0 4.0 0.0 4.0 10.0 0.0 1.0 5.0 8.0 10.0 3.0 1.0 1.0 4.0 1.0 5.0 4.0 5.0 10.0 5.0 4.0 6.0 2.0 10.0 2.0 8.0 5.0 5.0 0.0 8.0 4.0 3.0 1.0 5.0 6.0 6.0 6.0 3.0 5.0 7.0 3.0 3.0 1.0 8.0 7.0 5.0 7.0 6.0 9.0 10.0 4.0 0.0 
2.0 6.0 6.0 2.0 4.0 0.0 6.0 10.0 8.0 3.0 4.0 4.0 5.0 9.0 1.0 4.0 4.0 7.0 1.0 6.0 8.0 10.0 7.0 6.0 5.0 1.0 4.0 10.0 1.0 4.0 1.0 4.0 -425.0 7.0 2.0 6.0 3.0 9.0 4.0 8.0 8.0 7.0 7.0 5.0 8.0 9.0 6.0 3.0 6.0 0.0 2.0 5.0 10.0 4.0 9.0 8.0 5.0 3.0 8.0 8.0 8.0 1.0 0.0 8.0 0.0 3.0 5.0 6.0 3.0 6.0 2.0 6.0 7.0 1.0 7.0 10.0 4.0 0.0 7.0 10.0 7.0 4.0 7.0 
10.0 4.0 10.0 1.0 5.0 5.0 0.0 0.0 3.0 5.0 0.0 5.0 0.0 7.0 6.0 8.0 2.0 7.0 7.0 5.0 4.0 4.0 1.0 3.0 4.0 2.0 3.0 5.0 6.0 5.0 4.0 0.0 7.0 -378.0 9.0 2.0 5.0 8.0 6.0 5.0 7.0 10.0 4.0 8.0 4.0 5.0 4.0 0.0 4.0 10.0 1.0 4.0 3.0 2.0 4.0 2.0 5.0 7.0 4.0 5.0 1.0 5.0 3.0 3.0 5.0 1.0 9.0 3.0 2.0 2.0 10.0 8.0 4.0 7.0 1.0 3.0 0.0 5.0 7.0 6.0 10.0 8.0 9.0 
3.0 7.0 5.0 1.0 0.0 5.0 7.0 6.0 8.0 7.0 0.0 0.0 4.0 4.0 8.0 8.0 0.0 2.0 0.0 2.0 9.0 3.0 3.0 2.0 4.0 9.0 3.0 8.0 4.0 9.0 4.0 4.0 2.0 9.0 -394.0 8.0 9.0 2.0 3.0 10.0 4.0 1.0 1.0 6.0 2.0 1.0 9.0 6.0 9.0 8.0 3.0 4.0 10.0 8.0 0.0 8.0 1.0 5.0 0.0 2.0 7.0 5.0 4.0 7.0 2.0 4.0 3.0 10.0 5.0 7.0 5.0 7.0 10.0 7.0 1.0 2.0 0.0 5.0 9.0 4.0 2.0 10.0 8.0 
6.0 6.0 0.0 2.0 1.0 1.0 10.0 6.0 1.0 0.0 1.0 2.0 6.0 7.0 6.0 9.0 1.0 10.0 6.0 3.0 10.0 3.0 7.0 1.0 0.0 0.0 7.0 9.0 10.0 3.0 7.0 10.0 6.0 2.0 8.0 -426.0 7.0 2.0 10.0 10.0 8.0 5.0 9.0 0.0 9.0 6.0 2.0 3.0 1.0 10.0 8.0 4.0 9.0 6.0 8.0 8.0 7.0 10.0 9.0 1.0 4.0 5.0 3.0 1.0 9.0 5.0 6.0 6.0 1.0 3.0 3.0 7.0 4.0 8.0 10.0 2.0 4.0 1.0 3.0 6.0 7.0 5.0 4.0 
4.0 10.0 3.0 0.0 0.0 10.0 4.0 9.0 9.0 5.0 1.0 10.0 1.0 8.0 7.0 2.0 4.0 1.0 6.0 9.0 0.0 5.0 10.0 5.0 6.0 10.0 8.0 2.0 10.0 6.0 3.0 0.0 3.0 5.0 9.0 7.0 -407.0 9.0 1.0 8.0 5.0 8.0 1.0 3.0 3.0 1.0 5.0 6.0 9.0 5.0 10.0 9.0 0.0 2.0 0.0 5.0 4.0 9.0 2.0 8.0 8.0 1.0 2.0 6.0 3.0 1.0 6.0 3.0 8.0 1.0 9.0 4.0 10.0 0.0 7.0 1.0 9.0 3.0 2.0 0.0 10.0 0.0 8.0 
5.0 3.0 7.0 6.0 6.0 2.0 6.0 3.0 0.0 0.0 2.0 2.0 9.0 10.0 4.0 4.0 4.0 2.0 5.0 6.0 4.0 5.0 3.0 8.0 8.0 7.0 1.0 1.0 5.0 8.0 9.0 1.0 9.0 8.0 2.0 2.0 9.0 -419.0 8.0 7.0 4.0 1.0 5.0 6.0 0.0 3.0 7.0 3.0 8.0 8.0 10.0 10.0 7.0 6.0 0.0 4.0 10.0 8.0 6.0 4.0 5.0 0.0 0.0 8.0 8.0 2.0 3.0 1.0 7.0 6.0 6.0 5.0 10.0 9.0 9.0 7.0 6.0 6.0 2.0 1.0 8.0 2.0 7.0 
9.0 2.0 5.0 0.0 7.0 5.0 7.0 2.0 9.0 10.0 7.0 3.0 1.0 4.0 4.0 4.0 3.0 9.0 0.0 10.0 5.0 10.0 10.0 7.0 8.0 8.0 1.0 6.0 3.0 3.0 3.0 5.0 4.0 6.0 3.0 10.0 1.0 8.0 -413.0 5.0 7.0 7.0 2.0 8.0 3.0 2.0 2.0 7.0 7.0 9.0 5.0 9.0 8.0 6.0 4.0 5.0 10.0 5.0 0.0 10.0 4.0 2.0 2.0 1.0 1.0 8.0 4.0 3.0 4.0 5.0 6.0 1.0 0.0 9.0 0.0 8.0 2.0 6.0 8.0 5.0 1.0 7.0 3.0 
2.0 5.0 7.0 0.0 3.0 0.0 1.0 0.0 1.0 1.0 7.0 3.0 2.0 0.0 8.0 3.0 10.0 2.0 9.0 6.0 6.0 2.0 1.0 5.0 8.0 8.0 4.0 7.0 10.0 7.0 7.0 8.0 8.0 5.0 10.0 10.0 8.0 7.0 5.0 -412.0 1.0 0.0 8.0 2.0 10.0 7.0 6.0 2.0 7.0 5.0 6.0 4.0 2.0 1.0 3.0 4.0 8.0 9.0 6.0 9.0 6.0 10.0 0.0 6.0 4.0 3.0 7.0 9.0 7.0 2.0 10.0 3.0 9.0 5.0 9.0 4.0 9.0 0.0 0.0 4.0 3.0 3.0 3.0 
5.0 9.0 10.0 3.0 1.0 1.0 3.0 0.0 3.0 3.0 6.0 7.0 7.0 7.0 5.0 8.0 2.0 7.0 5.0 7.0 0.0 8.0 3.0 1.0 2.0 4.0 0.0 3.0 1.0 1.0 5.0 10.0 8.0 7.0 4.0 8.0 5.0 4.0 7.0 1.0 -359.0 1.0 7.0 7.0 1.0 8.0 3.0 5.0 7.0 9.0 7.0 2.0 4.0 9.0 0.0 2.0 0.0 6.0 2.0 3.0 5.0 4.0 2.0 5.0 1.0 0.0 7.0 9.0 9.0 6.0 2.0 0.0 3.0 3.0 4.0 3.0 6.0 1.0 2.0 8.0 5.0 2.0 8.0 
7.0 10.0 1.0 7.0 0.0 5.0 0.0 4.0 10.0 5.0 4.0 10.0 4.0 7.0 1.0 6.0 0.0 1.0 5.0 0.0 10.0 10.0 5.0 4.0 3.0 9.0 3.0 3.0 6.0 1.0 4.0 3.0 7.0 10.0 1.0 5.0 8.0 1.0 7.0 0.0 1.0 -353.0 7.0 8.0 0.0 0.0 1.0 1.0 6.0 5.0 8.0 10.0 6.0 6.0 1.0 1.0 3.0 8.0 0.0 1.0 4.0 8.0 0.0 0.0 0.0 1.0 0.0 1.0 9.0 1.0 4.0 10.0 3.0 8.0 8.0 4.0 0.0 9.0 3.0 10.0 0.0 0.0 10.0 
5.0 9.0 1.0 9.0 6.0 5.0 4.0 6.0 2.0 10.0 6.0 0.0 6.0 10.0 10.0 4.0 4.0 3.0 7.0 3.0 3.0 2.0 10.0 5.0 10.0 3.0 8.0 7.0 8.0 7.0 3.0 1.0 7.0 4.0 1.0 9.0 1.0 5.0 2.0 8.0 7.0 7.0 -374.0 4.0 1.0 2.0 7.0 5.0 8.0 0.0 3.0 6.0 1.0 9.0 3.0 5.0 2.0 4.0 0.0 0.0 8.0 7.0 4.0 2.0 8.0 6.0 2.0 3.0 1.0 1.0 4.0 3.0 1.0 0.0 9.0 6.0 0.0 0.0 2.0 8.0 9.0 1.0 1.0 
0.0 5.0 4.0 4.0 7.0 10.0 0.0 4.0 1.0 6.0 3.0 6.0 2.0 5.0 6.0 5.0 9.0 3.0 5.0 1.0 6.0 5.0 3.0 3.0 4.0 9.0 4.0 7.0 9.0 7.0 8.0 1.0 5.0 8.0 6.0 0.0 3.0 6.0 8.0 2.0 7.0 8.0 4.0 -397.0 3.0 1.0 10.0 4.0 4.0 2.0 2.0 6.0 0.0 2.0 7.0 7.0 7.0 0.0 3.0 5.0 5.0 8.0 2.0 8.0 6.0 2.0 9.0 0.0 2.0 10.0 9.0 7.0 0.0 0.0 5.0 5.0 10.0 6.0 5.0 1.0 9.0 10.0 6.0 
10.0 8.0 6.0 10.0 7.0 2.0 10.0 1.0 10.0 1.0 1.0 2.0 8.0 7.0 8.0 1.0 5.0 7.0 6.0 2.0 7.0 4.0 6.0 4.0 7.0 10.0 5.0 4.0 2.0 4.0 3.0 4.0 8.0 4.0 2.0 9.0 3.0 0.0 3.0 10.0 1.0 0.0 1.0 3.0 -348.0 4.0 8.0 1.0 8.0 2.0 1.0 3.0 2.0 7.0 3.0 1.0 0.0 2.0 9.0 1.0 1.0 0.0 1.0 5.0 4.0 10.0 3.0 0.0 9.0 1.0 0.0 1.0 4.0 1.0 0.0 1.0 3.0 8.0 6.0 6.0 9.0 2.0 5.0 
4.0 4.0 5.0 10.0 0.0 1.0 1.0 5.0 6.0 8.0 8.0 4.0 3.0 1.0 9.0 0.0 4.0 6.0 1.0 4.0 7.0 6.0 8.0 2.0 6.0 10.0 10.0 10.0 1.0 3.0 10.0 1.0 9.0 5.0 1.0 6.0 1.0 3.0 2.0 7.0 8.0 0.0 2.0 1.0 4.0 -396.0 5.0 3.0 10.0 6.0 0.0 4.0 9.0 7.0 1.0 3.0 8.0 0.0 10.0 4.0 2.0 5.0 9.0 2.0 7.0 4.0 8.0 0.0 3.0 3.0 5.0 3.0 2.0 8.0 8.0 7.0 1.0 5.0 9.0 9.0 10.0 4.0 5.0 
2.0 9.0 0.0 5.0 0.0 10.0 8.0 6.0 6.0 10.0 3.0 1.0 0.0 6.0 5.0 3.0 7.0 7.0 1.0 1.0 9.0 5.0 9.0 8.0 4.0 1.0 9.0 7.0 1.0 7.0 7.0 5.0 6.0 4.0 9.0 2.0 5.0 7.0 2.0 6.0 3.0 1.0 7.0 10.0 8.0 5.0 -433.0 3.0 8.0 2.0 0.0 10.0 0.0 4.0 4.0 6.0 9.0 5.0 9.0 6.0 10.0 5.0 1.0 8.0 9.0 3.0 7.0 6.0 9.0 4.0 4.0 6.0 8.0 5.0 3.0 0.0 5.0 2.0 10.0 8.0 6.0 8.0 3.0 
5.0 9.0 2.0 7.0 5.0 1.0 10.0 8.0 7.0 3.0 9.0 1.0 4.0 2.0 8.0 3.0 9.0 5.0 7.0 0.0 2.0 3.0 4.0 3.0 7.0 6.0 9.0 2.0 9.0 3.0 8.0 4.0 3.0 0.0 6.0 3.0 6.0 3.0 7.0 2.0 5.0 1.0 5.0 4.0 1.0 3.0 3.0 -406.0 4.0 6.0 5.0 3.0 6.0 1.0 3.0 6.0 4.0 3.0 9.0 5.0 8.0 0.0 10.0 0.0 9.0 8.0 1.0 0.0 3.0 10.0 9.0 10.0 4.0 1.0 2.0 9.0 2.0 2.0 9.0 10.0 9.0 9.0 9.0 
10.0 9.0 1.0 9.0 6.0 6.0 2.0 4.0 9.0 6.0 2.0 4.0 1.0 8.0 8.0 3.0 5.0 8.0 0.0 5.0 7.0 1.0 5.0 0.0 2.0 0.0 9.0 7.0 5.0 0.0 3.0 5.0 6.0 4.0 9.0 1.0 9.0 8.0 7.0 7.0 7.0 6.0 8.0 4.0 8.0 10.0 8.0 4.0 -404.0 1.0 0.0 6.0 0.0 10.0 1.0 9.0 3.0 7.0 4.0 6.0 6.0 10.0 6.0 9.0 0.0 0.0 1.0 4.0 5.0 1.0 3.0 7.0 7.0 8.0 3.0 1.0 7.0 0.0 8.0 3.0 3.0 4.0 5.0 
7.0 9.0 5.0 9.0 5.0 7.0 4.0 8.0 1.0 1.0 2.0 2.0 2.0 4.0 8.0 3.0 0.0 7.0 4.0 0.0 2.0 3.0 6.0 8.0 3.0 1.0 5.0 3.0 4.0 7.0 6.0 10.0 0.0 10.0 8.0 10.0 5.0 8.0 9.0 5.0 9.0 5.0 0.0 2.0 2.0 6.0 2.0 6.0 1.0 -406.0 8.0 4.0 1.0 4.0 7.0 5.0 5.0 9.0 4.0 7.0 4.0 7.0 10.0 10.0 7.0 0.0 2.0 2.0 7.0 9.0 0.0 6.0 6.0 9.0 9.0 1.0 0.0 6.0 4.0 5.0 2.0 3.0 9.0 
6.0 4.0 8.0 1.0 9.0 3.0 6.0 2.0 8.0 6.0 1.0 6.0 10.0 9.0 6.0 8.0 3.0 4.0 9.0 2.0 1.0 10.0 3.0 2.0 4.0 8.0 8.0 4.0 10.0 9.0 5.0 5.0 2.0 1.0 3.0 8.0 10.0 10.0 5.0 6.0 7.0 8.0 3.0 2.0 1.0 0.0 0.0 5.0 0.0 8.0 -484.0 6.0 9.0 6.0 7.0 5.0 9.0 9.0 4.0 10.0 9.0 1.0 8.0 4.0 7.0 7.0 8.0 9.0 4.0 7.0 8.0 9.0 9.0 9.0 4.0 3.0 9.0 10.0 5.0 5.0 10.0 7.0 8.0 
0.0 6.0 7.0 2.0 6.0 7.0 10.0 1.0 1.0 1.0 10.0 3.0 0.0 4.0 3.0 4.0 9.0 6.0 1.0 9.0 0.0 10.0 8.0 0.0 7.0 1.0 5.0 8.0 4.0 3.0 0.0 4.0 5.0 4.0 4.0 4.0 9.0 10.0 9.0 4.0 2.0 10.0 6.0 6.0 3.0 4.0 10.0 3.0 6.0 4.0 6.0 -383.0 0.0 6.0 7.0 0.0 8.0 8.0 0.0 6.0 6.0 1.0 6.0 1.0 6.0 9.0 3.0 4.0 8.0 9.0 0.0 0.0 9.0 4.0 7.0 0.0 2.0 6.0 8.0 2.0 5.0 1.0 2.0 
1.0 4.0 8.0 2.0 5.0 4.0 2.0 0.0 10.0 9.0 1.0 6.0 6.0 6.0 1.0 2.0 6.0 2.0 5.0 10.0 6.0 4.0 7.0 8.0 5.0 1.0 0.0 8.0 10.0 1.0 5.0 6.0 10.0 3.0 10.0 9.0 0.0 7.0 8.0 2.0 4.0 6.0 1.0 0.0 2.0 9.0 0.0 6.0 0.0 1.0 9.0 0.0 -413.0 10.0 9.0 9.0 3.0 7.0 0.0 6.0 7.0 1.0 1.0 4.0 7.0 9.0 7.0 7.0 5.0 0.0 7.0 6.0 5.0 0.0 5.0 8.0 5.0 3.0 6.0 10.0 10.0 9.0 9.0 
6.0 8.0 2.0 5.0 8.0 4.0 0.0 10.0 1.0 6.0 2.0 5.0 6.0 3.0 9.0 0.0 7.0 9.0 0.0 10.0 4.0 5.0 1.0 7.0 9.0 1.0 5.0 4.0 4.0 1.0 1.0 2.0 4.0 2.0 8.0 6.0 2.0 6.0 6.0 1.0 9.0 6.0 9.0 2.0 7.0 7.0 4.0 1.0 10.0 4.0 6.0 6.0 10.0 -421.0 2.0 8.0 2.0 8.0 3.0 3.0 8.0 3.0 6.0 3.0 9.0 7.0 10.0 9.0 10.0 10.0 5.0 1.0 6.0 3.0 9.0 3.0 7.0 1.0 10.0 1.0 4.0 1.0 8.0 
4.0 4.0 10.0 3.0 8.0 7.0 4.0 4.0 1.0 4.0 1.0 3.0 1.0 9.0 7.0 5.0 8.0 2.0 7.0 5.0 1.0 3.0 6.0 0.0 4.0 8.0 1.0 4.0 6.0 4.0 0.0 10.0 9.0 4.0 0.0 8.0 0.0 0.0 4.0 3.0 0.0 1.0 3.0 7.0 3.0 1.0 4.0 3.0 1.0 7.0 7.0 7.0 9.0 2.0 -360.0 4.0 3.0 3.0 1.0 9.0 6.0 6.0 8.0 10.0 8.0 5.0 2.0 1.0 1.0 8.0 10.0 10.0 1.0 5.0 3.0 2.0 6.0 7.0 3.0 6.0 2.0 2.0 1.0 
3.0 5.0 9.0 10.0 1.0 8.0 10.0 4.0 8.0 9.0 4.0 7.0 1.0 9.0 6.0 7.0 4.0 0.0 7.0 1.0 0.0 3.0 7.0 1.0 2.0 3.0 0.0 0.0 7.0 10.0 10.0 2.0 8.0 2.0 8.0 8.0 5.0 4.0 5.0 4.0 2.0 1.0 5.0 7.0 1.0 3.0 6.0 6.0 9.0 5.0 5.0 0.0 9.0 8.0 4.0 -398.0 0.0 0.0 3.0 3.0 2.0 8.0 10.0 5.0 6.0 6.0 4.0 0.0 1.0 6.0 3.0 4.0 6.0 5.0 10.0 6.0 10.0 2.0 10.0 2.0 2.0 6.0 5.0 
9.0 9.0 3.0 3.0 2.0 8.0 6.0 4.0 5.0 8.0 1.0 1.0 2.0 10.0 9.0 1.0 4.0 1.0 7.0 10.0 6.0 1.0 3.0 8.0 6.0 1.0 3.0 2.0 8.0 6.0 9.0 8.0 5.0 5.0 1.0 7.0 4.0 10.0 10.0 8.0 0.0 3.0 2.0 7.0 0.0 8.0 9.0 4.0 3.0 5.0 9.0 8.0 3.0 2.0 3.0 0.0 -418.0 10.0 7.0 6.0 0.0 1.0 4.0 2.0 4.0 0.0 7.0 1.0 7.0 9.0 8.0 6.0 8.0 4.0 3.0 2.0 9.0 6.0 8.0 9.0 7.0 9.0 1.0 
6.0 3.0 2.0 1.0 5.0 1.0 4.0 9.0 1.0 7.0 9.0 0.0 0.0 4.0 9.0 1.0 9.0 6.0 10.0 9.0 4.0 5.0 7.0 3.0 5.0 0.0 8.0 3.0 5.0 1.0 0.0 5.0 3.0 7.0 5.0 10.0 9.0 8.0 5.0 9.0 6.0 8.0 4.0 0.0 2.0 0.0 5.0 3.0 7.0 9.0 9.0 8.0 7.0 8.0 3.0 0.0 10.0 -418.0 9.0 1.0 5.0 7.0 8.0 6.0 3.0 2.0 4.0 10.0 3.0 7.0 8.0 0.0 2.0 10.0 9.0 6.0 1.0 9.0 2.0 5.0 4.0 1.0 9.0 
6.0 10.0 2.0 3.0 9.0 10.0 6.0 0.0 0.0 7.0 1.0 5.0 6.0 3.0 8.0 2.0 0.0 0.0 10.0 3.0 8.0 5.0 1.0 7.0 7.0 10.0 0.0 4.0 2.0 9.0 1.0 5.0 8.0 4.0 0.0 9.0 2.0 6.0 0.0 6.0 2.0 0.0 0.0 3.0 9.0 10.0 9.0 9.0 4.0 4.0 4.0 0.0 0.0 3.0 1.0 3.0 7.0 9.0 -376.0 3.0 3.0 6.0 0.0 5.0 0.0 7.0 10.0 8.0 9.0 4.0 7.0 2.0 3.0 9.0 3.0 3.0 4.0 2.0 2.0 8.0 0.0 10.0 6.0 
10.0 3.0 6.0 5.0 5.0 6.0 9.0 0.0 8.0 8.0 1.0 9.0 4.0 7.0 4.0 6.0 7.0 0.0 10.0 5.0 7.0 7.0 9.0 0.0 4.0 1.0 2.0 4.0 9.0 1.0 4.0 0.0 8.0 5.0 2.0 1.0 8.0 4.0 10.0 9.0 3.0 1.0 0.0 5.0 1.0 4.0 6.0 5.0 6.0 7.0 10.0 6.0 6.0 3.0 9.0 3.0 6.0 1.0 3.0 -407.0 1.0 7.0 5.0 10.0 9.0 1.0 6.0 0.0 6.0 8.0 10.0 5.0 7.0 7.0 0.0 3.0 5.0 0.0 1.0 7.0 6.0 9.0 1.0 
2.0 3.0 2.0 1.0 4.0 6.0 9.0 4.0 10.0 5.0 9.0 2.0 3.0 4.0 8.0 4.0 9.0 0.0 8.0 3.0 0.0 8.0 0.0 0.0 2.0 9.0 0.0 7.0 4.0 2.0 6.0 8.0 8.0 1.0 7.0 4.0 8.0 5.0 4.0 6.0 5.0 4.0 8.0 5.0 1.0 2.0 10.0 8.0 6.0 4.0 9.0 6.0 7.0 8.0 6.0 2.0 0.0 5.0 3.0 1.0 -414.0 3.0 5.0 6.0 5.0 9.0 6.0 0.0 6.0 3.0 3.0 7.0 6.0 10.0 8.0 9.0 10.0 3.0 3.0 10.0 5.0 6.0 6.0 
9.0 2.0 8.0 10.0 0.0 8.0 2.0 4.0 4.0 3.0 3.0 8.0 3.0 6.0 0.0 2.0 2.0 3.0 0.0 4.0 4.0 7.0 6.0 8.0 10.0 5.0 9.0 0.0 9.0 8.0 10.0 4.0 1.0 5.0 5.0 5.0 1.0 0.0 2.0 10.0 4.0 8.0 7.0 8.0 0.0 5.0 5.0 0.0 10.0 7.0 1.0 1.0 1.0 3.0 6.0 8.0 1.0 7.0 6.0 7.0 3.0 -399.0 5.0 0.0 0.0 3.0 10.0 0.0 6.0 8.0 4.0 8.0 10.0 10.0 5.0 9.0 4.0 6.0 10.0 1.0 2.0 9.0 1.0 
1.0 7.0 2.0 7.0 9.0 2.0 3.0 6.0 3.0 0.0 6.0 7.0 2.0 1.0 0.0 7.0 3.0 3.0 10.0 0.0 2.0 5.0 8.0 7.0 0.0 8.0 10.0 2.0 1.0 1.0 0.0 3.0 0.0 3.0 4.0 3.0 2.0 0.0 2.0 0.0 2.0 0.0 4.0 2.0 1.0 9.0 1.0 10.0 6.0 10.0 8.0 6.0 1.0 6.0 8.0 10.0 4.0 8.0 0.0 5.0 5.0 5.0 -329.0 9.0 5.0 3.0 5.0 4.0 4.0 3.0 3.0 1.0 1.0 2.0 0.0 0.0 10.0 8.0 1.0 3.0 6.0 8.0 2.0 
6.0 7.0 7.0 6.0 10.0 10.0 1.0 2.0 0.0 7.0 9.0 4.0 3.0 10.0 3.0 1.0 6.0 6.0 5.0 8.0 5.0 2.0 1.0 0.0 6.0 0.0 8.0 0.0 2.0 10.0 9.0 1.0 8.0 3.0 7.0 1.0 6.0 8.0 1.0 6.0 5.0 0.0 2.0 8.0 5.0 2.0 8.0 0.0 9.0 10.0 4.0 1.0 4.0 3.0 10.0 5.0 2.0 6.0 5.0 10.0 6.0 0.0 9.0 -402.0 5.0 4.0 1.0 10.0 5.0 2.0 8.0 8.0 4.0 8.0 2.0 4.0 6.0 0.0 6.0 0.0 3.0 10.0 7.0 
2.0 5.0 2.0 10.0 4.0 8.0 8.0 1.0 5.0 3.0 7.0 1.0 3.0 9.0 1.0 10.0 3.0 5.0 1.0 7.0 2.0 9.0 0.0 8.0 4.0 10.0 5.0 8.0 0.0 2.0 5.0 5.0 0.0 5.0 2.0 9.0 3.0 8.0 1.0 4.0 1.0 0.0 8.0 6.0 4.0 7.0 9.0 9.0 0.0 7.0 7.0 6.0 7.0 9.0 8.0 6.0 4.0 3.0 0.0 9.0 5.0 0.0 5.0 5.0 -387.0 6.0 9.0 9.0 0.0 1.0 9.0 4.0 2.0 1.0 2.0 8.0 4.0 7.0 2.0 6.0 0.0 2.0 5.0 
2.0 5.0 10.0 10.0 8.0 8.0 2.0 3.0 7.0 8.0 4.0 2.0 5.0 1.0 3.0 7.0 10.0 2.0 5.0 10.0 3.0 9.0 6.0 6.0 10.0 8.0 2.0 6.0 5.0 6.0 1.0 6.0 3.0 1.0 4.0 5.0 1.0 2.0 8.0 3.0 0.0 1.0 6.0 2.0 10.0 4.0 3.0 8.0 0.0 0.0 7.0 9.0 9.0 7.0 5.0 6.0 0.0 2.0 7.0 1.0 9.0 3.0 3.0 4.0 6.0 -400.0 8.0 8.0 10.0 8.0 7.0 8.0 1.0 2.0 3.0 1.0 2.0 0.0 0.0 7.0 6.0 8.0 2.0 
0.0 10.0 6.0 1.0 6.0 3.0 8.0 5.0 0.0 2.0 6.0 3.0 8.0 0.0 7.0 7.0 0.0 3.0 0.0 5.0 4.0 5.0 0.0 1.0 7.0 5.0 4.0 9.0 10.0 0.0 4.0 6.0 5.0 9.0 3.0 6.0 6.0 3.0 4.0 7.0 7.0 0.0 2.0 9.0 3.0 8.0 7.0 1.0 1.0 2.0 8.0 3.0 7.0 10.0 2.0 4.0 7.0 4.0 10.0 6.0 6.0 10.0 5.0 1.0 9.0 8.0 -377.0 3.0 8.0 6.0 1.0 5.0 5.0 3.0 4.0 0.0 3.0 4.0 1.0 6.0 4.0 0.0 6.0 
5.0 10.0 0.0 4.0 1.0 5.0 6.0 10.0 4.0 1.0 9.0 5.0 4.0 6.0 3.0 10.0 5.0 10.0 10.0 6.0 1.0 5.0 0.0 3.0 5.0 6.0 7.0 5.0 5.0 6.0 8.0 6.0 6.0 3.0 10.0 6.0 3.0 1.0 3.0 9.0 9.0 1.0 3.0 0.0 0.0 0.0 6.0 0.0 4.0 2.0 9.0 4.0 7.0 9.0 1.0 0.0 1.0 10.0 8.0 0.0 0.0 0.0 4.0 10.0 9.0 8.0 3.0 -397.0 2.0 3.0 2.0 1.0 3.0 8.0 8.0 3.0 10.0 2.0 10.0 3.0 2.0 10.0 10.0 
10.0 8.0 1.0 10.0 7.0 7.0 1.0 8.0 4.0 4.0 7.0 7.0 7.0 6.0 4.0 2.0 8.0 2.0 5.0 0.0 8.0 10.0 9.0 7.0 10.0 7.0 1.0 7.0 0.0 9.0 4.0 3.0 3.0 2.0 5.0 1.0 8.0 7.0 4.0 7.0 9.0 9.0 1.0 2.0 9.0 3.0 9.0 3.0 5.0 7.0 4.0 8.0 5.0 10.0 1.0 1.0 7.0 3.0 9.0 6.0 6.0 6.0 4.0 5.0 0.0 10.0 8.0 2.0 -437.0 6.0 3.0 6.0 5.0 2.0 4.0 1.0 6.0 5.0 5.0 3.0 9.0 1.0 9.0 
5.0 5.0 7.0 2.0 5.0 7.0 0.0 9.0 10.0 9.0 9.0 5.0 10.0 1.0 7.0 4.0 3.0 7.0 2.0 3.0 1.0 4.0 8.0 10.0 5.0 8.0 8.0 9.0 8.0 4.0 0.0 5.0 6.0 2.0 7.0 3.0 1.0 6.0 5.0 2.0 6.0 1.0 1.0 10.0 1.0 3.0 4.0 10.0 1.0 9.0 7.0 9.0 0.0 10.0 8.0 6.0 9.0 7.0 4.0 8.0 3.0 8.0 3.0 2.0 1.0 8.0 6.0 3.0 6.0 -412.0 4.0 0.0 4.0 2.0 3.0 6.0 0.0 8.0 7.0 2.0 8.0 0.0 2.0 
8.0 5.0 3.0 9.0 10.0 5.0 6.0 0.0 1.0 3.0 6.0 8.0 5.0 10.0 2.0 1.0 5.0 10.0 8.0 7.0 3.0 10.0 10.0 4.0 0.0 0.0 8.0 2.0 8.0 5.0 8.0 7.0 2.0 10.0 5.0 3.0 9.0 6.0 6.0 10.0 2.0 4.0 4.0 9.0 0.0 5.0 4.0 9.0 3.0 0.0 8.0 0.0 7.0 5.0 10.0 3.0 8.0 8.0 7.0 10.0 3.0 4.0 3.0 8.0 9.0 7.0 1.0 2.0 3.0 4.0 -449.0 9.0 3.0 9.0 6.0 9.0 4.0 1.0 9.0 0.0 6.0 6.0 9.0 
10.0 5.0 4.0 6.0 6.0 6.0 8.0 5.0 3.0 1.0 0.0 8.0 6.0 5.0 4.0 9.0 1.0 3.0 6.0 2.0 4.0 7.0 1.0 2.0 6.0 5.0 6.0 5.0 7.0 0.0 7.0 3.0 6.0 8.0 7.0 7.0 4.0 5.0 1.0 3.0 0.0 10.0 3.0 7.0 1.0 3.0 6.0 10.0 7.0 6.0 9.0 0.0 6.0 1.0 10.0 4.0 6.0 0.0 2.0 5.0 7.0 8.0 1.0 8.0 4.0 8.0 5.0 1.0 6.0 0.0 9.0 -409.0 10.0 8.0 6.0 3.0 9.0 2.0 3.0 2.0 7.0 6.0 8.0 
2.0 5.0 0.0 5.0 3.0 8.0 6.0 7.0 5.0 9.0 4.0 8.0 6.0 8.0 8.0 2.0 5.0 6.0 2.0 3.0 8.0 6.0 8.0 6.0 9.0 3.0 4.0 0.0 4.0 9.0 5.0 3.0 7.0 4.0 10.0 4.0 10.0 10.0 0.0 9.0 3.0 3.0 1.0 0.0 4.0 2.0 8.0 4.0 7.0 6.0 9.0 9.0 5.0 6.0 1.0 6.0 8.0 2.0 3.0 7.0 6.0 10.0 1.0 4.0 2.0 1.0 5.0 3.0 5.0 4.0 3.0 10.0 -407.0 3.0 6.0 0.0 8.0 1.0 0.0 3.0 4.0 4.0 9.0 
1.0 8.0 6.0 10.0 10.0 6.0 6.0 0.0 10.0 5.0 4.0 3.0 4.0 3.0 7.0 7.0 7.0 3.0 4.0 3.0 2.0 4.0 1.0 3.0 8.0 7.0 7.0 8.0 10.0 7.0 6.0 1.0 1.0 7.0 7.0 8.0 0.0 9.0 9.0 5.0 3.0 8.0 0.0 0.0 1.0 8.0 5.0 1.0 8.0 9.0 9.0 4.0 0.0 3.0 5.0 5.0 4.0 10.0 9.0 7.0 10.0 10.0 2.0 8.0 1.0 2.0 3.0 8.0 2.0 2.0 9.0 8.0 3.0 -425.0 6.0 10.0 2.0 3.0 0.0 2.0 3.0 5.0 10.0 
1.0 7.0 10.0 0.0 3.0 3.0 5.0 9.0 9.0 7.0 9.0 8.0 5.0 9.0 4.0 7.0 3.0 1.0 1.0 8.0 6.0 5.0 8.0 10.0 2.0 1.0 7.0 2.0 8.0 8.0 5.0 8.0 7.0 1.0 1.0 10.0 7.0 9.0 0.0 9.0 4.0 8.0 9.0 5.0 0.0 8.0 3.0 2.0 3.0 9.0 4.0 7.0 5.0 9.0 3.0 10.0 3.0 9.0 3.0 0.0 8.0 5.0 0.0 2.0 2.0 3.0 4.0 8.0 4.0 3.0 6.0 6.0 6.0 6.0 -429.0 0.0 7.0 0.0 6.0 4.0 6.0 7.0 9.0 
6.0 5.0 5.0 8.0 1.0 10.0 3.0 0.0 9.0 9.0 8.0 2.0 1.0 5.0 0.0 2.0 2.0 8.0 2.0 7.0 8.0 7.0 7.0 8.0 7.0 10.0 5.0 3.0 2.0 2.0 7.0 7.0 10.0 3.0 2.0 2.0 1.0 7.0 8.0 4.0 3.0 4.0 6.0 5.0 1.0 7.0 0.0 9.0 1.0 1.0 3.0 0.0 8.0 3.0 2.0 6.0 2.0 6.0 3.0 3.0 9.0 9.0 0.0 4.0 8.0 1.0 0.0 3.0 1.0 6.0 9.0 3.0 0.0 10.0 0.0 -374.0 2.0 6.0 3.0 10.0 3.0 4.0 7.0 
10.0 5.0 7.0 1.0 10.0 5.0 3.0 0.0 6.0 0.0 9.0 5.0 0.0 4.0 1.0 9.0 1.0 8.0 9.0 6.0 7.0 9.0 4.0 1.0 4.0 8.0 5.0 7.0 6.0 2.0 7.0 5.0 4.0 0.0 0.0 4.0 9.0 6.0 2.0 9.0 6.0 0.0 0.0 10.0 3.0 1.0 5.0 2.0 7.0 0.0 9.0 2.0 5.0 7.0 6.0 10.0 9.0 1.0 4.0 5.0 10.0 4.0 10.0 6.0 4.0 2.0 3.0 10.0 6.0 0.0 4.0 9.0 8.0 2.0 7.0 2.0 -405.0 0.0 3.0 6.0 5.0 10.0 4.0 
6.0 4.0 5.0 2.0 4.0 6.0 9.0 1.0 9.0 0.0 4.0 2.0 10.0 0.0 1.0 6.0 9.0 1.0 9.0 0.0 4.0 6.0 1.0 5.0 9.0 1.0 0.0 2.0 5.0 1.0 1.0 7.0 0.0 5.0 5.0 1.0 3.0 6.0 6.0 0.0 1.0 9.0 0.0 6.0 8.0 5.0 2.0 2.0 0.0 6.0 10.0 6.0 3.0 1.0 7.0 2.0 6.0 9.0 2.0 0.0 3.0 6.0 8.0 0.0 7.0 0.0 4.0 2.0 5.0 8.0 1.0 2.0 1.0 3.0 0.0 6.0 0.0 -315.0 3.0 1.0 6.0 1.0 7.0 
8.0 9.0 4.0 1.0 6.0 10.0 1.0 5.0 7.0 7.0 5.0 9.0 10.0 0.0 2.0 1.0 1.0 1.0 5.0 8.0 10.0 2.0 10.0 1.0 3.0 3.0 9.0 4.0 0.0 8.0 3.0 6.0 7.0 7.0 9.0 3.0 2.0 2.0 8.0 0.0 2.0 3.0 2.0 5.0 6.0 9.0 10.0 9.0 8.0 4.0 5.0 8.0 6.0 10.0 3.0 10.0 8.0 2.0 2.0 1.0 3.0 10.0 1.0 6.0 2.0 0.0 1.0 10.0 5.0 7.0 9.0 3.0 0.0 0.0 6.0 3.0 3.0 3.0 -396.0 2.0 0.0 4.0 8.0 
1.0 9.0 2.0 6.0 8.0 4.0 9.0 3.0 5.0 4.0 3.0 8.0 6.0 9.0 0.0 5.0 9.0 5.0 1.0 1.0 0.0 7.0 9.0 10.0 3.0 3.0 5.0 10.0 5.0 10.0 10.0 9.0 10.0 6.0 4.0 6.0 0.0 1.0 5.0 4.0 8.0 10.0 8.0 1.0 6.0 9.0 8.0 10.0 3.0 5.0 5.0 2.0 10.0 1.0 6.0 2.0 9.0 5.0 8.0 7.0 10.0 1.0 3.0 0.0 6.0 7.0 6.0 3.0 3.0 2.0 0.0 2.0 3.0 2.0 4.0 10.0 6.0 1.0 2.0 -419.0 0.0 7.0 3.0 
1.0 0.0 0.0 3.0 1.0 9.0 0.0 10.0 9.0 5.0 1.0 3.0 10.0 4.0 0.0 4.0 7.0 1.0 2.0 1.0 3.0 7.0 0.0 4.0 0.0 3.0 3.0 1.0 5.0 7.0 9.0 10.0 7.0 10.0 2.0 7.0 10.0 8.0 1.0 3.0 5.0 0.0 9.0 9.0 9.0 10.0 6.0 9.0 3.0 2.0 10.0 5.0 10.0 4.0 2.0 2.0 7.0 4.0 0.0 6.0 5.0 2.0 6.0 3.0 0.0 6.0 4.0 2.0 9.0 8.0 6.0 7.0 4.0 3.0 6.0 3.0 5.0 6.0 0.0 0.0 -381.0 7.0 6.0 
7.0 0.0 5.0 4.0 0.0 8.0 1.0 3.0 0.0 6.0 1.0 10.0 3.0 8.0 1.0 8.0 2.0 0.0 7.0 0.0 3.0 8.0 3.0 3.0 9.0 6.0 3.0 7.0 6.0 9.0 10.0 4.0 4.0 8.0 10.0 5.0 0.0 2.0 7.0 3.0 2.0 0.0 1.0 10.0 2.0 4.0 8.0 9.0 4.0 3.0 7.0 1.0 9.0 1.0 2.0 6.0 9.0 1.0 10.0 9.0 6.0 9.0 8.0 10.0 2.0 8.0 0.0 10.0 1.0 0.0 6.0 6.0 4.0 5.0 7.0 4.0 10.0 1.0 4.0 7.0 7.0 -402.0 5.0 
0.0 0.0 8.0 7.0 7.0 10.0 7.0 1.0 6.0 4.0 0.0 3.0 6.0 2.0 1.0 3.0 10.0 9.0 2.0 2.0 3.0 5.0 5.0 5.0 7.0 3.0 5.0 3.0 5.0 6.0 9.0 0.0 7.0 9.0 8.0 4.0 8.0 7.0 3.0 3.0 8.0 10.0 1.0 6.0 5.0 5.0 3.0 9.0 5.0 9.0 8.0 2.0 9.0 8.0 1.0 5.0 1.0 9.0 6.0 1.0 6.0 1.0 2.0 7.0 5.0 2.0 6.0 10.0 9.0 2.0 9.0 8.0 9.0 10.0 9.0 7.0 4.0 7.0 8.0 3.0 6.0 5.0 -439.0 

